37
190
97
47
235
31
91
37
28
16
67
66
24
42
157
13
59
170
195
24
0
102
283
191
214
0
32
13
329
94
31
113
29
131
254
0
135
17
146
108
0
188
31
111
18
195
106
217
78
412
75
29
69
94
12
295
142
366
150
464
37
323
316
106
100
30
319
17
106
32
32
123
361
16
42
82
17
37
48
69
176
32
222
25
204
101
65
79
70
257
161
278
145
38
102
0
61
112
34
106
